NAME : X-n439-50-k19
COMMENT : "Generated by Queiroga, Frota, Sadykov, Subramanian, Uchoa and Vidal (2019)" 
TYPE : CVRP
DIMENSION : 439
EDGE_WEIGHT_TYPE : EUC_2D
CAPACITY : 12
NODE_COORD_SECTION
1 -1 500 500
2 0 769 259
3 0 91 377
4 0 108 338
5 0 816 567
6 0 698 341
7 0 741 237
8 0 601 140
9 0 63 359
10 0 215 608
11 0 979 914
12 0 911 697
13 0 440 593
14 0 922 765
15 0 185 756
16 0 486 158
17 0 993 628
18 0 241 33
19 0 200 756
20 0 856 440
21 0 471 712
22 0 929 649
23 0 811 44
24 0 125 727
25 0 830 484
26 0 568 366
27 0 261 394
28 0 478 965
29 0 726 474
30 0 68 952
31 0 747 716
32 0 678 366
33 0 17 603
34 0 169 689
35 0 916 565
36 0 564 913
37 0 268 681
38 0 937 878
39 0 370 634
40 0 555 847
41 0 246 911
42 0 267 333
43 0 166 257
44 0 147 179
45 0 418 383
46 0 382 886
47 0 312 911
48 0 416 186
49 0 457 582
50 0 334 882
51 0 269 710
52 0 513 910
53 0 739 882
54 0 503 682
55 0 451 911
56 0 171 656
57 0 843 44
58 0 94 165
59 0 726 411
60 0 197 498
61 0 49 726
62 0 645 224
63 0 915 247
64 0 981 775
65 0 844 973
66 0 519 268
67 0 291 97
68 0 986 589
69 0 414 719
70 0 407 720
71 0 82 782
72 0 255 312
73 0 151 291
74 0 831 520
75 0 970 760
76 0 912 77
77 0 150 909
78 0 638 624
79 0 585 630
80 0 655 287
81 0 708 178
82 0 503 504
83 0 14 634
84 0 261 106
85 0 825 599
86 0 433 646
87 0 298 153
88 0 88 970
89 0 704 58
90 0 258 52
91 0 930 209
92 0 570 72
93 0 252 338
94 0 141 741
95 0 353 966
96 0 718 880
97 0 581 608
98 0 69 246
99 0 469 225
100 0 623 619
101 0 501 929
102 0 359 117
103 0 128 931
104 0 953 786
105 0 30 752
106 0 157 419
107 0 637 668
108 0 454 640
109 0 888 420
110 0 937 231
111 0 252 161
112 0 453 708
113 0 995 666
114 0 998 151
115 0 687 778
116 0 350 281
117 0 977 113
118 0 970 790
119 0 604 21
120 0 128 917
121 0 664 777
122 0 310 275
123 0 122 40
124 0 846 937
125 0 586 561
126 0 806 751
127 0 312 123
128 0 139 930
129 0 479 760
130 0 69 875
131 0 698 197
132 0 726 250
133 0 782 561
134 0 43 320
135 0 757 331
136 0 898 518
137 0 133 541
138 0 497 279
139 0 418 234
140 0 25 118
141 0 880 166
142 0 529 957
143 0 565 758
144 0 60 701
145 0 567 295
146 0 66 72
147 0 535 391
148 0 30 683
149 0 447 677
150 0 362 365
151 0 618 766
152 0 540 747
153 0 972 449
154 0 500 86
155 0 555 154
156 0 275 341
157 0 299 644
158 0 890 504
159 0 42 970
160 0 496 177
161 0 789 679
162 0 770 402
163 0 229 264
164 0 545 735
165 0 504 867
166 0 708 580
167 0 218 232
168 0 339 760
169 0 710 910
170 0 99 352
171 0 564 708
172 0 875 761
173 0 376 398
174 0 667 49
175 0 774 666
176 0 728 515
177 0 676 316
178 0 961 518
179 0 811 724
180 0 551 563
181 0 484 538
182 0 862 621
183 0 589 636
184 0 574 712
185 0 879 326
186 0 77 733
187 0 476 800
188 0 107 535
189 0 643 837
190 0 642 249
191 0 793 754
192 0 37 871
193 0 760 614
194 0 420 78
195 0 312 676
196 0 329 322
197 0 919 95
198 0 605 144
199 0 763 884
200 0 528 760
201 0 9 106
202 0 214 887
203 0 323 338
204 0 253 819
205 0 628 365
206 0 597 761
207 0 128 138
208 0 705 400
209 0 571 979
210 0 931 739
211 0 764 26
212 0 162 169
213 0 338 947
214 0 718 807
215 0 769 882
216 0 480 60
217 0 635 657
218 0 292 467
219 0 136 228
220 0 593 769
221 1 866 390
222 1 313 239
223 1 813 727
224 1 12 260
225 1 642 817
226 1 271 154
227 1 196 682
228 1 330 261
229 1 250 283
230 1 358 273
231 1 950 598
232 1 244 524
233 1 583 858
234 1 388 295
235 1 677 853
236 1 748 608
237 1 254 471
238 1 301 270
239 1 115 623
240 1 159 246
241 1 900 400
242 1 298 216
243 1 313 219
244 1 393 252
245 1 847 676
246 1 271 197
247 1 429 275
248 1 281 865
249 1 842 436
250 1 320 268
251 1 232 202
252 1 503 302
253 1 362 128
254 1 385 201
255 1 222 615
256 1 952 426
257 1 589 627
258 1 400 209
259 1 141 757
260 1 730 710
261 1 242 378
262 1 175 791
263 1 194 777
264 1 190 651
265 1 312 187
266 1 730 646
267 1 366 181
268 1 50 248
269 1 353 270
270 1 652 784
271 1 306 316
272 1 390 185
273 1 767 916
274 1 648 820
275 1 950 134
276 1 259 336
277 1 218 666
278 1 405 778
279 1 176 687
280 1 687 796
281 1 288 233
282 1 164 230
283 1 631 800
284 1 475 364
285 1 644 787
286 1 387 115
287 1 430 195
288 1 844 347
289 1 159 665
290 1 385 195
291 1 777 779
292 1 784 688
293 1 802 671
294 1 273 68
295 1 115 719
296 1 201 591
297 1 126 178
298 1 328 138
299 1 170 673
300 1 43 227
301 1 761 811
302 1 964 859
303 1 949 412
304 1 282 187
305 1 645 937
306 1 88 608
307 1 469 662
308 1 194 760
309 1 307 322
310 1 364 163
311 1 814 726
312 1 44 357
313 1 249 222
314 1 754 663
315 1 457 666
316 1 302 159
317 1 685 772
318 1 224 678
319 1 119 717
320 1 362 172
321 1 660 817
322 1 392 252
323 1 611 940
324 1 421 282
325 1 360 280
326 1 312 272
327 1 359 422
328 1 930 449
329 1 727 839
330 1 362 174
331 1 865 435
332 1 865 403
333 1 652 771
334 1 640 408
335 1 574 311
336 1 205 298
337 1 634 902
338 1 323 219
339 1 378 170
340 1 290 86
341 1 904 421
342 1 439 192
343 1 315 230
344 1 899 450
345 1 623 138
346 1 230 220
347 1 246 268
348 1 155 167
349 1 164 337
350 1 23 271
351 1 432 202
352 1 364 194
353 1 296 166
354 1 347 322
355 1 943 753
356 1 206 641
357 1 795 780
358 1 796 849
359 1 196 585
360 1 189 611
361 1 306 225
362 1 818 409
363 1 95 550
364 1 792 819
365 1 727 707
366 1 190 624
367 1 161 32
368 1 739 302
369 1 769 778
370 1 631 849
371 1 68 320
372 1 952 269
373 1 315 199
374 1 193 734
375 1 605 969
376 1 130 185
377 1 418 214
378 1 326 236
379 1 978 671
380 1 952 836
381 1 344 269
382 1 270 271
383 1 771 647
384 1 397 238
385 1 196 8
386 1 238 225
387 1 49 245
388 1 826 339
389 1 266 151
390 1 914 448
391 1 878 317
392 1 332 208
393 1 68 190
394 1 298 259
395 1 883 786
396 1 865 354
397 1 356 215
398 1 839 318
399 1 243 672
400 1 652 671
401 1 66 242
402 1 668 495
403 1 343 94
404 1 215 0
405 1 269 280
406 1 676 898
407 1 282 320
408 1 185 62
409 1 994 368
410 1 251 159
411 1 56 273
412 1 133 311
413 1 239 64
414 1 376 228
415 1 378 491
416 1 252 657
417 1 182 66
418 1 748 760
419 1 154 103
420 1 656 923
421 1 361 224
422 1 230 160
423 1 363 344
424 1 337 211
425 1 749 800
426 1 1 293
427 1 729 319
428 1 285 650
429 1 331 10
430 1 199 630
431 1 781 445
432 1 590 258
433 1 364 204
434 1 324 224
435 1 56 412
436 1 208 238
437 1 197 739
438 1 455 395
439 1 242 222
DEMAND_SECTION
1 0
2 1
3 1
4 1
5 1
6 1
7 1
8 1
9 1
10 1
11 1
12 1
13 1
14 1
15 1
16 1
17 1
18 1
19 1
20 1
21 1
22 1
23 1
24 1
25 1
26 1
27 1
28 1
29 1
30 1
31 1
32 1
33 1
34 1
35 1
36 1
37 1
38 1
39 1
40 1
41 1
42 1
43 1
44 1
45 1
46 1
47 1
48 1
49 1
50 1
51 1
52 1
53 1
54 1
55 1
56 1
57 1
58 1
59 1
60 1
61 1
62 1
63 1
64 1
65 1
66 1
67 1
68 1
69 1
70 1
71 1
72 1
73 1
74 1
75 1
76 1
77 1
78 1
79 1
80 1
81 1
82 1
83 1
84 1
85 1
86 1
87 1
88 1
89 1
90 1
91 1
92 1
93 1
94 1
95 1
96 1
97 1
98 1
99 1
100 1
101 1
102 1
103 1
104 1
105 1
106 1
107 1
108 1
109 1
110 1
111 1
112 1
113 1
114 1
115 1
116 1
117 1
118 1
119 1
120 1
121 1
122 1
123 1
124 1
125 1
126 1
127 1
128 1
129 1
130 1
131 1
132 1
133 1
134 1
135 1
136 1
137 1
138 1
139 1
140 1
141 1
142 1
143 1
144 1
145 1
146 1
147 1
148 1
149 1
150 1
151 1
152 1
153 1
154 1
155 1
156 1
157 1
158 1
159 1
160 1
161 1
162 1
163 1
164 1
165 1
166 1
167 1
168 1
169 1
170 1
171 1
172 1
173 1
174 1
175 1
176 1
177 1
178 1
179 1
180 1
181 1
182 1
183 1
184 1
185 1
186 1
187 1
188 1
189 1
190 1
191 1
192 1
193 1
194 1
195 1
196 1
197 1
198 1
199 1
200 1
201 1
202 1
203 1
204 1
205 1
206 1
207 1
208 1
209 1
210 1
211 1
212 1
213 1
214 1
215 1
216 1
217 1
218 1
219 1
220 1
221 1
222 1
223 1
224 1
225 1
226 1
227 1
228 1
229 1
230 1
231 1
232 1
233 1
234 1
235 1
236 1
237 1
238 1
239 1
240 1
241 1
242 1
243 1
244 1
245 1
246 1
247 1
248 1
249 1
250 1
251 1
252 1
253 1
254 1
255 1
256 1
257 1
258 1
259 1
260 1
261 1
262 1
263 1
264 1
265 1
266 1
267 1
268 1
269 1
270 1
271 1
272 1
273 1
274 1
275 1
276 1
277 1
278 1
279 1
280 1
281 1
282 1
283 1
284 1
285 1
286 1
287 1
288 1
289 1
290 1
291 1
292 1
293 1
294 1
295 1
296 1
297 1
298 1
299 1
300 1
301 1
302 1
303 1
304 1
305 1
306 1
307 1
308 1
309 1
310 1
311 1
312 1
313 1
314 1
315 1
316 1
317 1
318 1
319 1
320 1
321 1
322 1
323 1
324 1
325 1
326 1
327 1
328 1
329 1
330 1
331 1
332 1
333 1
334 1
335 1
336 1
337 1
338 1
339 1
340 1
341 1
342 1
343 1
344 1
345 1
346 1
347 1
348 1
349 1
350 1
351 1
352 1
353 1
354 1
355 1
356 1
357 1
358 1
359 1
360 1
361 1
362 1
363 1
364 1
365 1
366 1
367 1
368 1
369 1
370 1
371 1
372 1
373 1
374 1
375 1
376 1
377 1
378 1
379 1
380 1
381 1
382 1
383 1
384 1
385 1
386 1
387 1
388 1
389 1
390 1
391 1
392 1
393 1
394 1
395 1
396 1
397 1
398 1
399 1
400 1
401 1
402 1
403 1
404 1
405 1
406 1
407 1
408 1
409 1
410 1
411 1
412 1
413 1
414 1
415 1
416 1
417 1
418 1
419 1
420 1
421 1
422 1
423 1
424 1
425 1
426 1
427 1
428 1
429 1
430 1
431 1
432 1
433 1
434 1
435 1
436 1
437 1
438 1
439 1
DEPOT_SECTION
1
-1
EOF
